
Gurobi 9.1.2 (win64, Java) logging started Sat Nov 13 11:08:42 2021

Academic license - for non-commercial use only - expires 2022-10-30
Gurobi Optimizer version 9.1.2 build v9.1.2rc0 (win64)
Thread count: 6 physical cores, 12 logical processors, using up to 12 threads
Optimize a model with 60 rows, 800 columns and 1600 nonzeros
Model fingerprint: 0xcdd0555f
Variable types: 0 continuous, 800 integer (800 binary)
Coefficient statistics:
  Matrix range     [1e+00, 1e+03]
  Objective range  [1e+02, 9e+02]
  Bounds range     [1e+00, 1e+00]
  RHS range        [1e+00, 8e+02]
Found heuristic solution: objective 8469.0000000
Presolve removed 9 rows and 395 columns
Presolve time: 0.00s
Presolved: 51 rows, 405 columns, 810 nonzeros
Variable types: 0 continuous, 405 integer (405 binary)
Presolved: 51 rows, 405 columns, 810 nonzeros


Root relaxation: objective 1.098558e+04, 243 iterations, 0.00 seconds

    Nodes    |    Current Node    |     Objective Bounds      |     Work
 Expl Unexpl |  Obj  Depth IntInf | Incumbent    BestBd   Gap | It/Node Time

     0     0 10985.5813    0   29 8469.00000 10985.5813  29.7%     -    0s
H    0     0                    10116.000000 10985.5813  8.60%     -    0s
H    0     0                    10119.000000 10985.5813  8.56%     -    0s
H    0     0                    10457.000000 10985.5813  5.05%     -    0s
     0     0 10929.1357    0   55 10457.0000 10929.1357  4.52%     -    0s
     0     0 10926.2677    0   40 10457.0000 10926.2677  4.49%     -    0s
     0     0 10926.2677    0   40 10457.0000 10926.2677  4.49%     -    0s
     0     0 10907.7214    0   39 10457.0000 10907.7214  4.31%     -    0s
H    0     0                    10514.000000 10907.7214  3.74%     -    0s
     0     0 10903.8501    0   52 10514.0000 10903.8501  3.71%     -    0s
     0     0 10903.6787    0   48 10514.0000 10903.6787  3.71%     -    0s
     0     0 10867.1165    0   41 10514.0000 10867.1165  3.36%     -    0s
H    0     0                    10580.000000 10867.1165  2.71%     -    0s
     0     0 10867.1165    0   42 10580.0000 10867.1165  2.71%     -    0s
     0     0 10854.6253    0   55 10580.0000 10854.6253  2.60%     -    0s
H    0     0                    10584.000000 10854.6253  2.56%     -    0s
     0     0 10850.8735    0   46 10584.0000 10850.8735  2.52%     -    0s
     0     0 10850.7628    0   51 10584.0000 10850.7628  2.52%     -    0s
H    0     0                    10647.000000 10850.7628  1.91%     -    0s
     0     0 10839.8108    0   47 10647.0000 10839.8108  1.81%     -    0s
H    0     0                    10707.000000 10839.8108  1.24%     -    0s
     0     0 10839.6510    0   55 10707.0000 10839.6510  1.24%     -    0s
     0     0 10827.5503    0   41 10707.0000 10827.5503  1.13%     -    0s
     0     0 10824.9768    0   45 10707.0000 10824.9768  1.10%     -    0s
     0     0 10824.9188    0   53 10707.0000 10824.9188  1.10%     -    0s
     0     0 10803.1644    0   46 10707.0000 10803.1644  0.90%     -    0s
     0     0 10800.8688    0   49 10707.0000 10800.8688  0.88%     -    0s
     0     0 10800.7016    0   49 10707.0000 10800.7016  0.88%     -    0s
     0     0 10787.7162    0   42 10707.0000 10787.7162  0.75%     -    0s
     0     0 10784.9407    0   48 10707.0000 10784.9407  0.73%     -    0s
     0     0 10784.9407    0   54 10707.0000 10784.9407  0.73%     -    0s
     0     0 10783.9435    0   45 10707.0000 10783.9435  0.72%     -    0s
     0     0 10783.4551    0   41 10707.0000 10783.4551  0.71%     -    0s
     0     0 10783.4551    0   43 10707.0000 10783.4551  0.71%     -    0s
     0     0 10781.8182    0   32 10707.0000 10781.8182  0.70%     -    0s
     0     0 10781.7374    0   35 10707.0000 10781.7374  0.70%     -    0s
     0     0 10768.0000    0   10 10707.0000 10768.0000  0.57%     -    0s
     0     0 10768.0000    0    5 10707.0000 10768.0000  0.57%     -    0s
     0     0 10768.0000    0    5 10707.0000 10768.0000  0.57%     -    0s
H    0     0                    10765.000000 10768.0000  0.03%     -    0s
     0     0 10768.0000    0   15 10765.0000 10768.0000  0.03%     -    0s
     0     0 infeasible    0      10765.0000 10765.0000  0.00%     -    0s

Cutting planes:
  Gomory: 6
  Cover: 7
  Clique: 5
  MIR: 11
  StrongCG: 10
  RLT: 3

Explored 1 nodes (1537 simplex iterations) in 0.21 seconds
Thread count was 12 (of 12 available processors)

Solution count 10: 10765 10707 10647 ... 8469

Optimal solution found (tolerance 1.00e-12)
Best objective 1.076500000000e+04, best bound 1.076500000000e+04, gap 0.0000%
